21
-26.2003119838 converged=true
C  -3.96329441644189861549 0.54874727979867243821 -0.00032634111806815905
C  -2.43995797901356326065 0.53336822559268348698 0.01548858150252883752
C  -1.86386431735528934617 1.94943075835185086753 0.02847184474457091496
C  -2.43521029482939654898 2.74383497751901117567 1.20364566717745602453
C  -3.95947699279327691713 2.77908862964526548467 1.14542505274222339295
C  -4.52274987943722184269 1.36185050678320984652 1.16378341154330722240
H  -2.05429774466935066712 -0.02180281289373710990 -0.84500078767327058138
H  -4.28550481740418831578 0.99126765176339137753 -0.94676523487207209229
H  -4.34209564626827404510 -0.47436818765450272650 0.03990423233838848172
H  -2.11646282102490612687 2.27825047070091990520 2.13788738818919199502
H  -2.03668689964727711583 3.75993051690667323683 1.18071467617382630522
H  -4.34884724686686574557 3.34318939530939474025 1.99488407020294200578
H  -4.27813494523962756233 3.28702294319287302571 0.23137542057432897158
H  -4.25127743706521421529 0.87659376659141619026 2.10281490223490052927
H  -5.61206391856284625419 1.38768160735954682039 1.09993152297487850610
H  -2.19753339893985399911 2.42137003071708534208 -0.90453620606351969879
C  -0.33802401268175674698 1.94277859250596507401 0.04668424062506369016
H  0.05339079228850983350 1.38271699025888850088 -0.80013370825540286457
H  0.04196883077040756971 2.96017773000202355504 -0.00686892259396834799
H  0.02950401757822031582 1.48556872785273808013 0.96181769488839508053
Cl -1.87935687239631565859 -0.38977980030337711082 1.44725249466429817247
21
-26.1984927716 converged=true
C  -3.55595943188916452371 0.33179434468195023733 0.43502082195225433292
C  -2.64923960241258749093 0.91497968690070163866 -0.63726262480452622317
C  -1.76069226875815809663 2.04524699010094224150 -0.11403199633939709035
C  -2.67453327683553920835 3.12964554136425121555 0.47499829694816164682
C  -3.60908789088976522663 2.58058518212962662020 1.54975189425110260188
C  -4.45094538027869468522 1.43501841977202260203 0.99712823759123092593
H  -3.25928853119572092822 1.29358774878247340112 -1.46368605226260584118
H  -4.16654590054328366477 -0.46364782589797015611 0.00337682323038590582
H  -2.95371835702739016227 -0.10603811637340188057 1.23175514692725052157
H  -2.05832515019557682479 3.92811347606453420411 0.89200488536463318212
H  -3.27606988021737866035 3.55984063183599364066 -0.32974559277385739886
H  -3.02888961675078016711 2.22901812763955042840 2.40383036150299256306
H  -4.26227298655772823821 3.38073366390544283178 1.90375611754346785176
H  -5.08793308446427339220 1.02443525100014598550 1.78243858929841625383
H  -5.09939330859983819266 1.81231620999940457040 0.20262803972041587564
H  -1.22791980552336821297 2.47493332195476467561 -0.97066305103260919207
C  -0.70897013248082241255 1.57575133721786331265 0.88866619591304696346
H  -1.16067678636784110680 1.15480349363617973424 1.78163569700983215327
H  -0.07253700880370006487 0.81889641614708919004 0.43771134790859100860
H  -0.08549097979272435310 2.41632044155150360609 1.18459826384611988104
Cl -1.65148662041465632555 -0.38941634241370937097 -1.35746140179507168710
21
-26.1954767145 converged=true
C  -3.55311331202376878835 0.33517326818035031444 0.62802973169754539029
C  -2.68030106778556076463 0.77649481552783872207 -0.53606288222442177727
C  -1.78213357841203401399 1.96496254596096431300 -0.18467002085121964061
C  -2.68846169480837149379 3.11213547674739210436 0.28596828008440733360
C  -3.58119913526643829371 2.69697197652492004494 1.45187865563345930298
C  -4.44061680593800645056 1.49853921612110596584 1.06488139766668865605
H  -3.31343495661452713819 1.04218081433538611869 -1.38823888654579685742
H  -4.16485190482574729742 -0.51650422481355584559 0.32501950700110293635
H  -2.92623878145919258387 0.01824044501277399810 1.46272294894772336704
H  -2.06747351977302340487 3.96264532465951901941 0.57286238923705190551
H  -3.32007645048558552858 3.42926751259126660898 -0.54769534230143546161
H  -2.96808155200411283303 2.43510495545664973349 2.31570429362614227387
H  -4.21876142711809265506 3.53546686625494333001 1.73881141999827648625
H  -5.05871806235967191867 1.19015121858994477044 1.90975077498238565710
H  -5.10720936308375250690 1.77614460452323630335 0.24490159637829667094
H  -1.28949745476039057124 2.28649914550005828318 -1.10846231309496334738
C  -0.69851112217240185487 1.61741491975988127550 0.84791893771237270006
H  0.29212020614255429507 1.76301968085128213382 0.42564934845178825640
H  -0.78029343945162699114 2.24630387734047598514 1.73028265840090123007
H  -0.76802683006200744842 0.57995961933109119180 1.16194996523795524013
Cl -1.68509574773662484937 -0.60325405845652224635 -1.10475246003853899701
21
-26.1921816827 converged=true
C  -3.93527368573043823119 0.38814182216133352732 0.20982250193816642803
C  -2.40797582275940458274 0.47896592133442617012 0.27712888647789352126
C  -1.91796364636336580389 1.89858413248163571119 0.01130850467990807129
C  -2.43605803389938690984 2.86199455525403889666 1.08994829802772552618
C  -3.82794725907556765421 2.46937681155637989150 1.60097698288864087601
C  -4.60809939609346930212 1.72915171100386366732 0.52100448467789717277
H  -1.95220260644182297405 -0.21950804256059619490 -0.42960681798772948348
H  -4.22384025436598342651 0.05752665809065149460 -0.79055612710329137283
H  -4.27792968905296255855 -0.36995183638931750103 0.91556125209032090950
H  -1.73526118902247583620 2.87317013586020619798 1.92572670036923820902
H  -2.46113450646273790312 3.86880560995794020585 0.66865281326040348908
H  -3.73461357019827255854 1.81806854940562412359 2.47082892097481110483
H  -4.37217401117186454940 3.36192210480411812767 1.91346260923487854200
H  -5.63333042500571945510 1.55214632979240096944 0.84901835688248028511
H  -4.65236667645159140960 2.34628159369149358326 -0.37871303474321704741
H  -2.34441254214212380091 2.18435543170977197747 -0.95737534697443937848
C  -0.39775863586717141729 1.96664498806815557508 -0.10049374348906758847
H  -0.08188553282257871047 2.99080848679734678797 -0.28436484969400721567
H  0.06669239959728079370 1.62234385738165909352 0.82041160468121487881
H  -0.04397882712593270682 1.34350992684869385840 -0.91949074917977668964
Cl -1.82246208954294353077 -0.07542074725078951047 1.88319875298767236416
21
-26.1913963678 converged=true
C  -3.82755801755272617726 0.35884077416717574671 0.68869044866342499223
C  -2.42578427264373530647 0.46059369341779921037 0.07986230185036413687
C  -1.91857108916844332214 1.90905558729473567858 0.04793639386905096389
C  -2.43108405027366547557 2.64639088015242762708 1.28411884951411758848
C  -3.95559317298411361463 2.80869484015586801107 1.22094838411517869758
C  -4.61199597677850903210 1.64786244269742265800 0.46357710452838629678
H  -2.40319869610324143849 0.04163138270820021525 -0.92962601075619577529
H  -4.35545971631728079387 -0.49328108734910092181 0.25768718199805246138
H  -3.74490660636325145560 0.18633826206147219295 1.76304981770092616955
H  -2.14428034847182757971 2.07687410941034400480 2.16968171084529082293
H  -1.95655944032095052698 3.62578681352482234956 1.35662419718092719378
H  -4.35293217928148212792 2.85820742584794107444 2.23591559446807952583
H  -4.20917804340113033135 3.74749802884248506274 0.72529248810555402294
H  -5.63913043449400319673 1.51476474877836264632 0.80575598682882798585
H  -4.65046108093416687979 1.86366694708369684541 -0.60580886066396533174
H  -2.36285973497257417719 2.37454159606692094542 -0.83949710969194457633
C  -0.40211904276164656125 2.00790802056912909279 -0.08892801773936709342
H  -0.11362298526717973246 3.04207601059396326448 -0.26282037190897211687
H  0.09054272492796444638 1.66013591640738944477 0.81493840419875240855
H  -0.05333377408307127254 1.40637809969185734182 -0.92556226803330088337
Cl -1.33189006275317733952 -0.59704649212392713054 1.03461377492647965681
